interdiction/RANDOM/miblp_15_10_50_0110_0_9.mps
NAME          BLANK   
ROWS
 N  OBJROW
 G  R0000000
 G  R0000001
 G  R0000002
 G  R0000003
 G  R0000004
 G  R0000005
 G  R0000006
 G  R0000007
 G  R0000008
 G  R0000009
 G  R0000010
 G  R0000011
 G  R0000012
 G  R0000013
 G  R0000014
COLUMNS
    C0000000  OBJROW    47.            R0000001   -2.        
    C0000000  R0000002   -11.          R0000003   -16.       
    C0000000  R0000004   -45.          R0000007   -33.       
    C0000000  R0000008   -48.          R0000009   -47.       
    C0000000  R0000012   -45.          R0000013   -12.       
    C0000001  OBJROW    8.             R0000000   -11.       
    C0000001  R0000001   -18.          R0000004   -10.       
    C0000001  R0000005   -5.           R0000009   -23.       
    C0000001  R0000010   -15.          R0000013   -2.        
    C0000002  OBJROW     -17.          R0000001   -1.        
    C0000002  R0000002   -46.          R0000003   -4.        
    C0000002  R0000004   -43.          R0000005   -36.       
    C0000002  R0000007   -21.          R0000008   -49.       
    C0000002  R0000009   -38.          R0000010   -33.       
    C0000002  R0000011   -11.          R0000014   -44.       
    C0000003  OBJROW    2.             R0000000   -48.       
    C0000003  R0000001   -24.          R0000005   -20.       
    C0000003  R0000006   -4.           R0000007   -6.        
    C0000003  R0000008   -3.           R0000009   -29.       
    C0000003  R0000010   -30.          R0000011   -48.       
    C0000003  R0000014   -11.       
    C0000004  OBJROW    18.            R0000000   -39.       
    C0000004  R0000001   -31.          R0000004   -23.       
    C0000004  R0000005   -48.          R0000007   -38.       
    C0000004  R0000008   -3.           R0000010   -20.       
    C0000004  R0000011   -10.       
    C0000005  OBJROW    12.            R0000001   -44.       
    C0000005  R0000002   -6.           R0000004   -4.        
    C0000005  R0000005   -36.          R0000006   -8.        
    C0000005  R0000007   -6.           R0000008   -44.       
    C0000005  R0000009   -42.          R0000011   -8.        
    C0000005  R0000012   -15.       
    C0000006  OBJROW     -16.          R0000001   -14.       
    C0000006  R0000002   -2.           R0000003   -30.       
    C0000006  R0000004   -26.          R0000005   -15.       
    C0000006  R0000007   -5.           R0000008   -26.       
    C0000006  R0000010   -28.          R0000011   -15.       
    C0000006  R0000012   -35.          R0000013   -35.       
    C0000006  R0000014   -45.       
    C0000007  OBJROW    7.             R0000001   -46.       
    C0000007  R0000004   -23.          R0000005   -50.       
    C0000007  R0000008   -9.           R0000009   -50.       
    C0000007  R0000012   -4.           R0000013   -1.        
    C0000007  R0000014   -16.       
    C0000008  OBJROW    30.            R0000000   -20.       
    C0000008  R0000004   -40.          R0000005   -42.       
    C0000008  R0000007   -35.          R0000008   -43.       
    C0000008  R0000009   -30.          R0000010   -14.       
    C0000008  R0000012   -26.          R0000013   -16.       
    C0000008  R0000014   -8.        
    C0000009  OBJROW    39.            R0000000   -30.       
    C0000009  R0000001   -6.           R0000002   -29.       
    C0000009  R0000004   -48.          R0000005   -40.       
    C0000009  R0000006   -16.          R0000008   -22.       
    C0000009  R0000009   -13.          R0000010   -41.       
    C0000009  R0000011   -13.          R0000012   -11.       
    C0000009  R0000013   -29.          R0000014   -2.        
RHS
    RHS       R0000000   -216.         R0000001   -361.      
    RHS       R0000002   -262.         R0000003   -140.      
    RHS       R0000004   -547.         R0000005   -702.      
    RHS       R0000006   -32.          R0000007   -406.      
    RHS       R0000008   -666.         R0000009   -448.      
    RHS       R0000010   -399.         R0000011   -187.      
    RHS       R0000012   -278.         R0000013   -188.      
    RHS       R0000014   -424.      
BOUNDS
 UI BOUND     C0000000  1500.       
 UI BOUND     C0000001  1500.       
 UI BOUND     C0000002  1500.       
 UI BOUND     C0000003  1500.       
 UI BOUND     C0000004  1500.       
 UI BOUND     C0000005  1500.       
 UI BOUND     C0000006  1500.       
 UI BOUND     C0000007  1500.       
 UI BOUND     C0000008  1500.       
 UI BOUND     C0000009  1500.       
ENDATA
