data/MIPS/RANDOM/NEW_MIPINT/NONSYMMETRIC/miblp_15_10_50_0110_0_9.mps.txt
N 10
M 25
LC 10
LC 11
LC 12
LC 13
LC 14
LC 15
LC 16
LC 17
LC 18
LC 19
LR 1
LR 2
LR 3
LR 4
LR 5
LR 6
LR 7
LR 8
LR 9
LR 10
LR 11
LR 12
LR 13
LR 14
LR 15
LR 16
LR 17
LR 18
LR 19
LR 20
LR 21
LR 22
LR 23
LR 24
LR 25
LO 47
LO 8
LO -17
LO 2
LO 18
LO 12
LO -16
LO 7
LO 30
LO 39
OS 1
IC 22
IC 22
IC 49
IC 46
IC 14
IC 49
IC 45
IC 43
IC 14
IC 30
IB 100
